(set-logic HORN)
(declare-fun P0 (Int) Bool)
(declare-fun P1 (Int Int) Bool)
(declare-fun P2 (Int Int Int) Bool)
(assert (forall ((x1 Int) (x2 Int) (x0 Int)) (=> (and (P0 x1) (P1 x1 x2) (= x0 0) (= x1 0) (= x2 0)) (P2 x1 x2 x0))))
(assert (forall ((x1 Int) (x2 Int) (x3 Int) (x0 Int)) (=> (and (P0 x2) (P1 x2 x3) (or (< x2 0) (> x2 0)) (or (< x3 0) (> x3 0)) (= x3 (+ 1 x0)) (= x2 (+ 1 x1))) (P0 x1))))
(assert (forall ((x0 Int) (x1 Int) (x2 Int) (x3 Int)) (=> (and (P0 x2) (P1 x2 x3) (or (< x2 0) (> x2 0)) (or (< x3 0) (> x3 0)) (= x2 (+ 1 x0)) (= x3 (+ 1 x1))) (P1 x0 x1))))
(assert (forall ((x1 Int) (x2 Int) (x0 Int) (x3 Int) (x4 Int) (x5 Int)) (=> (and (P0 x1) (P1 x1 x2) (P2 x3 x4 x5) (or (< x1 0) (> x1 0)) (or (< x2 0) (> x2 0)) (= x1 (+ 1 x3)) (= x2 (+ 1 x4)) (= x0 (+ 1 x5))) (P2 x1 x2 x0))))
(assert (forall ((x0 Int)) (=> true (P0 x0))))
(assert (forall ((x1 Int) (x0 Int)) (=> (= x0 x1) (P1 x1 x0))))
(assert (forall ((x0 Int)) (=> (and (P0 0) (P1 0 x0) (or (< x0 0) (> x0 0))) false)))
(assert (forall ((x0 Int)) (=> (and (P0 x0) (P1 x0 0) (or (< x0 0) (> x0 0))) false)))
(assert (forall ((x1 Int) (x0 Int)) (=> (and (P2 x0 x0 x1) (or (< x1 x0) (> x1 x0))) false)))
(check-sat)
